p tw 36 2701 2 
1 3 
1 4 
1 5 
1 6 
1 7 
1 12 
1 13 
1 17 
1 19 
1 22 
1 25 
1 27 
1 31 
1 32 
2 3 
2 4 
2 5 
2 6 
2 7 
2 8 
2 14 
2 18 
2 20 
2 23 
2 26 
2 28 
2 32 
2 33 
3 4 
3 5 
3 6 
3 8 
3 9 
3 13 
3 15 
3 21 
3 24 
3 27 
3 29 
3 33 
3 34 
4 5 
4 6 
4 9 
4 10 
4 14 
4 16 
4 19 
4 22 
4 28 
4 30 
4 34 
4 35 
5 6 
5 10 
5 11 
5 15 
5 17 
5 20 
5 23 
5 25 
5 29 
5 35 
5 36 
6 11 
6 12 
6 16 
6 18 
6 21 
6 24 
6 26 
6 30 
6 31 
6 36 
7 8 
7 9 
7 10 
7 11 
7 12 
7 13 
7 18 
7 19 
7 23 
7 25 
7 28 
7 31 
7 33 
8 9 
8 10 
8 11 
8 12 
8 13 
8 14 
8 20 
8 24 
8 26 
8 29 
8 32 
8 34 
9 10 
9 11 
9 12 
9 14 
9 15 
9 19 
9 21 
9 27 
9 30 
9 33 
9 35 
10 11 
10 12 
10 15 
10 16 
10 20 
10 22 
10 25 
10 28 
10 34 
10 36 
11 12 
11 16 
11 17 
11 21 
11 23 
11 26 
11 29 
11 31 
11 35 
12 17 
12 18 
12 22 
12 24 
12 27 
12 30 
12 32 
12 36 
13 14 
13 15 
13 16 
13 17 
13 18 
13 19 
13 24 
13 25 
13 29 
13 31 
13 34 
14 15 
14 16 
14 17 
14 18 
14 19 
14 20 
14 26 
14 30 
14 32 
14 35 
15 16 
15 17 
15 18 
15 20 
15 21 
15 25 
15 27 
15 33 
15 36 
16 17 
16 18 
16 21 
16 22 
16 26 
16 28 
16 31 
16 34 
17 18 
17 22 
17 23 
17 27 
17 29 
17 32 
17 35 
18 23 
18 24 
18 28 
18 30 
18 33 
18 36 
19 20 
19 21 
19 22 
19 23 
19 24 
19 25 
19 30 
19 31 
19 35 
20 21 
20 22 
20 23 
20 24 
20 25 
20 26 
20 32 
20 36 
21 22 
21 23 
21 24 
21 26 
21 27 
21 31 
21 33 
22 23 
22 24 
22 27 
22 28 
22 32 
22 34 
23 24 
23 28 
23 29 
23 33 
23 35 
24 29 
24 30 
24 34 
24 36 
25 26 
25 27 
25 28 
25 29 
25 30 
25 31 
25 36 
26 27 
26 28 
26 29 
26 30 
26 31 
26 32 
27 28 
27 29 
27 30 
27 32 
27 33 
28 29 
28 30 
28 33 
28 34 
29 30 
29 34 
29 35 
30 35 
30 36 
31 32 
31 33 
31 34 
31 35 
31 36 
32 33 
32 34 
32 35 
32 36 
33 34 
33 35 
33 36 
34 35 
34 36 
35 36 
